50
    57    62    39    41    32    72    32    71    55    40    22    61    80    55    86    81    30    94    15    43    89    27    17    97    12    12    14    37    16   100    44    95    84    32    62    45    67    39    37   100    79    43    54    16   100    56    14    89    77    83
     9     7    10     5     6     8    10     4     2     6     3     2     6     4     5     7     8     4     7    10     8     5     3     6     3     3     4    10     3     1     5    10     5     9     3     6     9     4     5     1    10     3     8     9     7     5     5     7     7     2
     0     3    56     0     0     0     0   535     0     0   773     0     0   900     0   410  1039  1023     0     0   857    23     0     0    61     0   390  1047   312   737     8    85   858  1019   512   109     0     0   227   506     0   901   237   554   375   736     0   715     0   716
